(set-logic HORN)
(set-info :source |
    Benchmark: Horn constraint system (9 clauses, 8 relation symbols)
    Generated by Eldarica (http://lara.epfl.ch/w/eldarica)
    Output by Princess (http://www.philipp.ruemmer.org/princess.shtml)
|)
(set-info :status unsat)
(declare-fun predtraverse_cpost_wrpc_with_err_1_sf_2 (Int Int Int Int Int Int Int Int Int Int Int Int Int Int Int Int Int Int Int Int Int Int Int Int Int Int Int Int Int Int Int Int Int Int Int Int) Bool)
(declare-fun predtraverse_main_without_err_1_sf_4 (Int Int Int Int Int Int Int Int Int Int Int Int Int Int Int Int Int Int Int Int Int Int Int Int Int Int Int Int Int Int Int Int Int Int Int Int) Bool)
(declare-fun predtraverse_main_without_err_1_p0_5 (Int Int Int Int Int Int Int Int Int Int Int Int Int Int Int Int Int Int Int Int Int Int Int Int Int Int Int Int Int Int Int Int Int Int Int Int Int Int) Bool)
(declare-fun predmain_se_4_1 (Int Int Int Int Int Int Int Int Int Int Int Int Int Int Int Int Int Int Int Int Int Int Int Int Int Int Int Int Int Int Int Int Int Int Int Int Int Int Int Int Int Int Int Int Int Int Int Int) Bool)
(declare-fun predtraverse_main_without_err_0_p3_7 (Int Int Int Int Int Int Int Int Int Int Int Int Int Int Int Int Int Int Int Int Int Int Int Int Int Int Int Int Int Int Int Int Int Int Int Int Int Int) Bool)
(declare-fun predmain_eventloop_3 (Int Int Int Int Int Int Int Int Int Int Int Int Int Int Int Int Int Int Int Int Int Int Int Int Int Int Int Int Int Int Int Int Int Int Int Int Int Int Int Int Int Int Int Int Int Int Int Int) Bool)
(declare-fun predtraverse_main_without_err_0_si_8 (Int Int Int Int Int Int Int Int Int Int Int Int Int Int Int Int Int Int Int Int Int Int Int Int Int Int Int Int Int Int Int Int Int Int Int Int Int Int) Bool)
(declare-fun predtraverse_main_without_err_0_sf_6 (Int Int Int Int Int Int Int Int Int Int Int Int Int Int Int Int Int Int Int Int Int Int Int Int Int Int Int Int Int Int Int Int Int Int Int Int) Bool)
(assert (forall ((var0 Int)) (forall ((var1 Int)) (forall ((var2 Int)) (forall ((var3 Int)) (forall ((var4 Int)) (forall ((var5 Int)) (forall ((var6 Int)) (forall ((var7 Int)) (forall ((var8 Int)) (forall ((var9 Int)) (forall ((var10 Int)) (forall ((var11 Int)) (forall ((var12 Int)) (forall ((var13 Int)) (forall ((var14 Int)) (forall ((var15 Int)) (forall ((var16 Int)) (forall ((var17 Int)) (forall ((var18 Int)) (forall ((var19 Int)) (forall ((var20 Int)) (forall ((var21 Int)) (forall ((var22 Int)) (forall ((var23 Int)) (forall ((var24 Int)) (forall ((var25 Int)) (forall ((var26 Int)) (forall ((var27 Int)) (forall ((var28 Int)) (forall ((var29 Int)) (forall ((var30 Int)) (forall ((var31 Int)) (forall ((var32 Int)) (forall ((var33 Int)) (forall ((var34 Int)) (forall ((var35 Int)) (forall ((var36 Int)) (forall ((var37 Int)) (forall ((var38 Int)) (forall ((var39 Int)) (forall ((var40 Int)) (forall ((var41 Int)) (forall ((var42 Int)) (forall ((var43 Int)) (forall ((var44 Int)) (forall ((var45 Int)) (forall ((var46 Int)) (not (predmain_se_4_1 var46 var45 var44 var43 var42 var41 var40 var39 var38 var37 var36 var35 var34 var33 var32 var31 var30 var29 var28 var27 var26 var25 var24 var23 1 var22 var21 var20 var19 var18 var17 var16 var15 var14 var13 var12 var11 var10 var9 var8 var7 var6 var5 var4 var3 var2 var1 var0 ) ) ) ) ) ) ) ) ) ) ) ) ) ) ) ) ) ) ) ) ) ) ) ) ) ) ) ) ) ) ) ) ) ) ) ) ) ) ) ) ) ) ) ) ) ) ) ) ) )
(assert (forall ((var0 Int)) (forall ((var1 Int)) (forall ((var2 Int)) (forall ((var3 Int)) (forall ((var4 Int)) (forall ((var5 Int)) (forall ((var6 Int)) (forall ((var7 Int)) (forall ((var8 Int)) (forall ((var9 Int)) (forall ((var10 Int)) (forall ((var11 Int)) (forall ((var12 Int)) (forall ((var13 Int)) (forall ((var14 Int)) (forall ((var15 Int)) (forall ((var16 Int)) (forall ((var17 Int)) (forall ((var18 Int)) (forall ((var19 Int)) (forall ((var20 Int)) (forall ((var21 Int)) (forall ((var22 Int)) (forall ((var23 Int)) (forall ((var24 Int)) (forall ((var25 Int)) (forall ((var26 Int)) (forall ((var27 Int)) (forall ((var28 Int)) (forall ((var29 Int)) (forall ((var30 Int)) (forall ((var31 Int)) (forall ((var32 Int)) (forall ((var33 Int)) (forall ((var34 Int)) (forall ((var35 Int)) (forall ((var36 Int)) (forall ((var37 Int)) (forall ((var38 Int)) (forall ((var39 Int)) (forall ((var40 Int)) (forall ((var41 Int)) (forall ((var42 Int)) (forall ((var43 Int)) (forall ((var44 Int)) (forall ((var45 Int)) (forall ((var46 Int)) (forall ((var47 Int)) (forall ((var48 Int)) (forall ((var49 Int)) (forall ((var50 Int)) (forall ((var51 Int)) (forall ((var52 Int)) (forall ((var53 Int)) (forall ((var54 Int)) (forall ((var55 Int)) (forall ((var56 Int)) (forall ((var57 Int)) (forall ((var58 Int)) (forall ((var59 Int)) (forall ((var60 Int)) (forall ((var61 Int)) (forall ((var62 Int)) (forall ((var63 Int)) (forall ((var64 Int)) (forall ((var65 Int)) (forall ((var66 Int)) (forall ((var67 Int)) (forall ((var68 Int)) (forall ((var69 Int)) (not (and (and (and (and (and (and (and (<= 0 (+ (* (- 1) var68 ) 1 ) ) (<= 0 var68 ) ) (<= 0 (+ (* (- 1) var67 ) 1 ) ) ) (<= 0 var67 ) ) (<= 0 (+ (* (- 1) var66 ) 1 ) ) ) (<= 0 var66 ) ) (<= 0 (+ var10 (* (- 1) 1 ) ) ) ) (and (and (predmain_eventloop_3 var47 var46 var45 var44 var43 var42 var41 var40 var39 var38 var37 var36 var35 var34 var33 var32 var31 var30 var29 var28 var27 var26 var25 var24 var23 var22 var21 var20 var19 var18 var17 var16 var15 var14 var13 var12 var11 var10 var9 var8 var7 var6 var5 var4 var3 var2 var1 var0 ) (predtraverse_cpost_wrpc_with_err_1_sf_2 var69 var16 var68 var14 var19 var12 var11 (+ var10 (* (- 1) 1 ) ) var9 var8 var21 var6 var67 var66 var18 var2 var1 var0 var65 var64 var63 var62 var61 var60 var59 var58 var57 var56 var55 var54 var53 var52 var51 var50 var49 var48 ) ) (not (predmain_se_4_1 var47 var46 var45 var44 var43 var42 var41 var40 var39 var38 var37 var36 var35 var34 var33 var32 var31 var30 var29 var28 var27 var26 var25 var24 var65 var66 var21 var68 var19 var18 var67 var64 var63 var62 var61 var60 var59 var58 var57 var56 var55 var54 var53 var52 var51 var50 var49 var48 ) ) ) ) ) ) ) ) ) ) ) ) ) ) ) ) ) ) ) ) ) ) ) ) ) ) ) ) ) ) ) ) ) ) ) ) ) ) ) ) ) ) ) ) ) ) ) ) ) ) ) ) ) ) ) ) ) ) ) ) ) ) ) ) ) ) ) ) ) ) ) ) ) ) ) )
(assert (forall ((var0 Int)) (forall ((var1 Int)) (forall ((var2 Int)) (forall ((var3 Int)) (forall ((var4 Int)) (forall ((var5 Int)) (forall ((var6 Int)) (forall ((var7 Int)) (forall ((var8 Int)) (forall ((var9 Int)) (forall ((var10 Int)) (forall ((var11 Int)) (forall ((var12 Int)) (forall ((var13 Int)) (forall ((var14 Int)) (forall ((var15 Int)) (forall ((var16 Int)) (forall ((var17 Int)) (forall ((var18 Int)) (forall ((var19 Int)) (forall ((var20 Int)) (forall ((var21 Int)) (forall ((var22 Int)) (forall ((var23 Int)) (forall ((var24 Int)) (forall ((var25 Int)) (forall ((var26 Int)) (forall ((var27 Int)) (forall ((var28 Int)) (forall ((var29 Int)) (forall ((var30 Int)) (forall ((var31 Int)) (forall ((var32 Int)) (forall ((var33 Int)) (forall ((var34 Int)) (forall ((var35 Int)) (forall ((var36 Int)) (forall ((var37 Int)) (forall ((var38 Int)) (forall ((var39 Int)) (forall ((var40 Int)) (forall ((var41 Int)) (forall ((var42 Int)) (forall ((var43 Int)) (forall ((var44 Int)) (forall ((var45 Int)) (forall ((var46 Int)) (forall ((var47 Int)) (forall ((var48 Int)) (not (and (and (and (and (and (and (and (<= 0 (+ (* (- 1) var21 ) 1 ) ) (<= 0 var21 ) ) (<= 0 (+ (* (- 1) var19 ) 1 ) ) ) (<= 0 var19 ) ) (<= 0 (+ (* (- 1) var18 ) 1 ) ) ) (<= 0 var18 ) ) (<= 0 (+ var10 (* (- 1) 1 ) ) ) ) (and (predmain_eventloop_3 var47 var46 var45 var44 var43 var42 var41 var40 var39 var38 var37 var36 var35 var34 var33 var32 var31 var30 var29 var28 var27 var26 var25 var24 var23 var22 var21 var20 var19 var18 var17 var16 var15 var14 var13 var12 var11 var10 var9 var8 var7 var6 var5 var4 var3 var2 var1 var0 ) (not (predtraverse_cpost_wrpc_with_err_1_sf_2 var48 var16 var18 var14 var19 var12 var11 (+ var10 (* (- 1) 1 ) ) var9 var8 var21 var6 var19 var21 var18 var2 var1 var0 1 var16 var18 var14 var19 var12 var11 (+ var10 (* (- 1) 1 ) ) var9 var8 var21 var6 var19 var21 var18 var2 var1 var0 ) ) ) ) ) ) ) ) ) ) ) ) ) ) ) ) ) ) ) ) ) ) ) ) ) ) ) ) ) ) ) ) ) ) ) ) ) ) ) ) ) ) ) ) ) ) ) ) ) ) ) ) ) ) )
(assert (forall ((var0 Int)) (forall ((var1 Int)) (forall ((var2 Int)) (forall ((var3 Int)) (forall ((var4 Int)) (forall ((var5 Int)) (forall ((var6 Int)) (forall ((var7 Int)) (forall ((var8 Int)) (forall ((var9 Int)) (forall ((var10 Int)) (forall ((var11 Int)) (forall ((var12 Int)) (forall ((var13 Int)) (forall ((var14 Int)) (forall ((var15 Int)) (forall ((var16 Int)) (forall ((var17 Int)) (forall ((var18 Int)) (forall ((var19 Int)) (forall ((var20 Int)) (forall ((var21 Int)) (forall ((var22 Int)) (forall ((var23 Int)) (forall ((var24 Int)) (forall ((var25 Int)) (forall ((var26 Int)) (forall ((var27 Int)) (forall ((var28 Int)) (forall ((var29 Int)) (forall ((var30 Int)) (forall ((var31 Int)) (forall ((var32 Int)) (forall ((var33 Int)) (forall ((var34 Int)) (forall ((var35 Int)) (forall ((var36 Int)) (forall ((var37 Int)) (forall ((var38 Int)) (forall ((var39 Int)) (forall ((var40 Int)) (forall ((var41 Int)) (forall ((var42 Int)) (forall ((var43 Int)) (forall ((var44 Int)) (forall ((var45 Int)) (forall ((var46 Int)) (forall ((var47 Int)) (not (and (and (and (and (and (and (and (and (and (and (and (and (<= 0 (+ (* (- 1) var28 ) 1 ) ) (<= 0 var28 ) ) (<= 0 (+ (* (- 1) var26 ) 1 ) ) ) (<= 0 var26 ) ) (<= 0 (+ (* (- 1) var23 ) 1 ) ) ) (<= 0 var23 ) ) (<= 0 (+ (* (- 1) var21 ) 1 ) ) ) (<= 0 var21 ) ) (<= 0 (+ (* (- 1) var20 ) 1 ) ) ) (<= 0 var20 ) ) (<= 0 (+ (* (- 1) var19 ) 1 ) ) ) (<= 0 var19 ) ) (and (predtraverse_main_without_err_1_sf_4 var29 0 var28 var27 var26 var25 0 0 var24 0 var23 var22 var21 var20 var19 var18 1 var17 1 var16 var15 var14 var13 var12 var11 var10 var9 var8 var7 var6 var5 var4 var3 var2 var1 var0 ) (not (predmain_eventloop_3 var47 var46 var45 var44 var43 var42 var41 var40 var39 var27 var38 var25 var37 var36 var24 var35 var34 var22 var33 var32 var31 var18 var30 var17 0 var20 var20 var28 var21 var28 var21 var16 var15 var14 var13 var12 var11 var10 var9 var8 var7 var6 var5 var4 var3 var2 var1 var0 ) ) ) ) ) ) ) ) ) ) ) ) ) ) ) ) ) ) ) ) ) ) ) ) ) ) ) ) ) ) ) ) ) ) ) ) ) ) ) ) ) ) ) ) ) ) ) ) ) ) ) ) ) )
(assert (forall ((var0 Int)) (forall ((var1 Int)) (forall ((var2 Int)) (forall ((var3 Int)) (forall ((var4 Int)) (forall ((var5 Int)) (forall ((var6 Int)) (forall ((var7 Int)) (forall ((var8 Int)) (forall ((var9 Int)) (forall ((var10 Int)) (forall ((var11 Int)) (forall ((var12 Int)) (forall ((var13 Int)) (forall ((var14 Int)) (forall ((var15 Int)) (forall ((var16 Int)) (forall ((var17 Int)) (forall ((var18 Int)) (forall ((var19 Int)) (forall ((var20 Int)) (forall ((var21 Int)) (forall ((var22 Int)) (forall ((var23 Int)) (forall ((var24 Int)) (forall ((var25 Int)) (forall ((var26 Int)) (forall ((var27 Int)) (forall ((var28 Int)) (forall ((var29 Int)) (forall ((var30 Int)) (forall ((var31 Int)) (forall ((var32 Int)) (forall ((var33 Int)) (forall ((var34 Int)) (not (and (predtraverse_main_without_err_1_p0_5 var34 var33 var32 var31 var30 var29 var28 var27 var26 var25 var24 var23 var22 var21 var20 var19 var18 var17 var16 var15 var14 var13 var3 var12 var5 var11 var10 var9 var8 var7 var4 var6 var5 var4 var3 var2 var1 var0 ) (not (predtraverse_main_without_err_1_sf_4 var33 var32 var31 var30 var29 var28 var27 var26 var25 var24 var23 var22 var21 var20 var19 var18 var17 var16 1 var13 var3 var12 var5 var11 var10 var9 var8 (+ var7 (* (- 1) 1 ) ) var4 var6 var5 var4 var3 var2 var1 var0 ) ) ) ) ) ) ) ) ) ) ) ) ) ) ) ) ) ) ) ) ) ) ) ) ) ) ) ) ) ) ) ) ) ) ) ) ) ) ) )
(assert (forall ((var0 Int)) (forall ((var1 Int)) (forall ((var2 Int)) (forall ((var3 Int)) (forall ((var4 Int)) (forall ((var5 Int)) (forall ((var6 Int)) (forall ((var7 Int)) (forall ((var8 Int)) (forall ((var9 Int)) (forall ((var10 Int)) (forall ((var11 Int)) (forall ((var12 Int)) (forall ((var13 Int)) (forall ((var14 Int)) (forall ((var15 Int)) (forall ((var16 Int)) (forall ((var17 Int)) (forall ((var18 Int)) (forall ((var19 Int)) (forall ((var20 Int)) (forall ((var21 Int)) (forall ((var22 Int)) (forall ((var23 Int)) (forall ((var24 Int)) (forall ((var25 Int)) (forall ((var26 Int)) (forall ((var27 Int)) (forall ((var28 Int)) (forall ((var29 Int)) (forall ((var30 Int)) (forall ((var31 Int)) (forall ((var32 Int)) (forall ((var33 Int)) (forall ((var34 Int)) (not (and (and (and (and (and (and (and (and (and (and (and (and (and (and (and (and (and (and (<= 0 (+ (* (- 1) var25 ) 1 ) ) (<= 0 var25 ) ) (<= 0 (+ (* (- 1) var24 ) 1 ) ) ) (<= 0 var24 ) ) (<= 0 (+ (* (- 1) var23 ) 1 ) ) ) (<= 0 var23 ) ) (<= 0 (+ (* (- 1) var22 ) 1 ) ) ) (<= 0 var22 ) ) (<= 0 (+ (* (- 1) var21 ) 1 ) ) ) (<= 0 var21 ) ) (<= 0 (+ (* (- 1) var20 ) 1 ) ) ) (<= 0 var20 ) ) (<= 0 (+ (* (- 1) var19 ) 1 ) ) ) (<= 0 var19 ) ) (<= 0 (+ (* (- 1) var18 ) 1 ) ) ) (<= 0 var18 ) ) (<= 0 (+ (* (- 1) var17 ) 1 ) ) ) (<= 0 var17 ) ) (and (predtraverse_main_without_err_0_sf_6 var26 1 var25 var19 var18 var24 0 0 var23 0 var17 var22 var21 var20 var19 var18 0 var17 1 var16 var15 var14 var13 var12 var11 var10 var9 var8 var7 var6 var5 var4 var3 var2 var1 var0 ) (not (predtraverse_main_without_err_1_p0_5 var34 var27 0 var25 var33 var24 var32 0 0 var31 0 var23 var30 var21 var20 var22 var29 1 var28 0 var27 var16 var15 var14 var13 var12 var11 var10 var9 (+ var8 1 ) var7 var6 var5 var4 var3 var2 var1 var0 ) ) ) ) ) ) ) ) ) ) ) ) ) ) ) ) ) ) ) ) ) ) ) ) ) ) ) ) ) ) ) ) ) ) ) ) ) ) ) ) )
(assert (forall ((var0 Int)) (forall ((var1 Int)) (forall ((var2 Int)) (forall ((var3 Int)) (forall ((var4 Int)) (forall ((var5 Int)) (forall ((var6 Int)) (forall ((var7 Int)) (forall ((var8 Int)) (forall ((var9 Int)) (forall ((var10 Int)) (forall ((var11 Int)) (forall ((var12 Int)) (forall ((var13 Int)) (forall ((var14 Int)) (forall ((var15 Int)) (forall ((var16 Int)) (forall ((var17 Int)) (forall ((var18 Int)) (forall ((var19 Int)) (forall ((var20 Int)) (forall ((var21 Int)) (forall ((var22 Int)) (forall ((var23 Int)) (forall ((var24 Int)) (forall ((var25 Int)) (forall ((var26 Int)) (forall ((var27 Int)) (forall ((var28 Int)) (forall ((var29 Int)) (forall ((var30 Int)) (forall ((var31 Int)) (forall ((var32 Int)) (forall ((var33 Int)) (not (and (predtraverse_main_without_err_0_p3_7 var33 var32 var31 var30 var29 var28 var27 var26 var25 var24 var23 var22 var21 var20 var19 var18 var17 var16 var15 var14 var13 var12 var11 var5 var10 var1 var9 var8 1 var7 var6 var5 var4 var3 var2 var1 var0 1 ) (not (predtraverse_main_without_err_0_sf_6 var32 var31 var30 var29 var28 var27 var26 var25 var24 var23 var22 var21 var20 var19 var18 var17 var16 var15 1 (+ var12 (* (- 1) 1 ) ) var11 var5 var10 var1 var9 (+ var8 1 ) 1 var7 var6 var5 var4 var3 var2 var1 var0 1 ) ) ) ) ) ) ) ) ) ) ) ) ) ) ) ) ) ) ) ) ) ) ) ) ) ) ) ) ) ) ) ) ) ) ) ) ) ) )
(assert (forall ((var0 Int)) (forall ((var1 Int)) (forall ((var2 Int)) (forall ((var3 Int)) (forall ((var4 Int)) (forall ((var5 Int)) (forall ((var6 Int)) (forall ((var7 Int)) (forall ((var8 Int)) (forall ((var9 Int)) (forall ((var10 Int)) (forall ((var11 Int)) (forall ((var12 Int)) (forall ((var13 Int)) (forall ((var14 Int)) (forall ((var15 Int)) (forall ((var16 Int)) (forall ((var17 Int)) (forall ((var18 Int)) (forall ((var19 Int)) (forall ((var20 Int)) (forall ((var21 Int)) (forall ((var22 Int)) (forall ((var23 Int)) (forall ((var24 Int)) (forall ((var25 Int)) (forall ((var26 Int)) (forall ((var27 Int)) (forall ((var28 Int)) (forall ((var29 Int)) (forall ((var30 Int)) (forall ((var31 Int)) (forall ((var32 Int)) (forall ((var33 Int)) (forall ((var34 Int)) (forall ((var35 Int)) (forall ((var36 Int)) (forall ((var37 Int)) (not (and (<= 0 (+ var16 (* (- 1) 1 ) ) ) (and (predtraverse_main_without_err_0_si_8 var37 var36 var35 var34 var33 var32 var31 var30 var29 var28 var27 var26 var25 var24 var23 var22 var21 var20 var19 var18 var17 var16 var15 var14 var13 var12 var11 var10 var9 var8 var7 var6 var5 var4 var3 var2 var1 var0 ) (not (predtraverse_main_without_err_0_p3_7 var37 var36 var35 var34 var33 var32 var31 var30 var29 var28 var27 var26 var25 var24 var23 var22 var21 var20 var19 var18 var17 var16 var15 var14 var13 var12 var11 var10 var9 var8 var7 var6 var5 var4 var3 var2 var1 var0 ) ) ) ) ) ) ) ) ) ) ) ) ) ) ) ) ) ) ) ) ) ) ) ) ) ) ) ) ) ) ) ) ) ) ) ) ) ) ) ) ) ) ) )
(assert (forall ((var0 Int)) (forall ((var1 Int)) (forall ((var2 Int)) (forall ((var3 Int)) (forall ((var4 Int)) (forall ((var5 Int)) (forall ((var6 Int)) (forall ((var7 Int)) (forall ((var8 Int)) (forall ((var9 Int)) (forall ((var10 Int)) (forall ((var11 Int)) (not (and (and (and (and (and (and (and (and (and (and (and (and (and (and (and (and (and (and (<= 0 (+ (* (- 1) var8 ) 1 ) ) (<= 0 var8 ) ) (<= 0 (+ (* (- 1) var7 ) 1 ) ) ) (<= 0 var7 ) ) (<= 0 (+ (* (- 1) var6 ) 1 ) ) ) (<= 0 var6 ) ) (<= 0 (+ (* (- 1) var5 ) 1 ) ) ) (<= 0 var5 ) ) (<= 0 (+ (* (- 1) var4 ) 1 ) ) ) (<= 0 var4 ) ) (<= 0 (+ (* (- 1) var3 ) 1 ) ) ) (<= 0 var3 ) ) (<= 0 (+ (* (- 1) var2 ) 1 ) ) ) (<= 0 var2 ) ) (<= 0 (+ (* (- 1) var1 ) 1 ) ) ) (<= 0 var1 ) ) (<= 0 (+ (* (- 1) var0 ) 1 ) ) ) (<= 0 var0 ) ) (not (predtraverse_main_without_err_0_si_8 var11 var9 1 var8 var2 var1 var7 0 0 var6 0 var0 var5 var4 var3 var2 var1 0 var0 var10 var9 1 var8 var2 var1 var7 0 0 var6 0 var0 var5 var4 var3 var2 var1 0 var0 ) ) ) ) ) ) ) ) ) ) ) ) ) ) ) ) )
(check-sat)
